peakDumbCharging = 18500; 
Machine = anon_enum(16); 
machineSpeed = [3700,3700,3700,3700,3700,3700,3700,3700,3700,3700,3700,3700,3700,3700,3700,3700]; 
machineLoad = [3700,3700,3700,3700,3700,3700,3700,3700,3700,3700,3700,3700,3700,3700,3700,3700]; 
Car = anon_enum(24); 
demandCar = [4400,2600,6360,5040,1040,480,23720,11520,15560,7480,12800,3720,3520,2240,3720,8080,80,5680,30960,3280,6080,16680,240,16160]; 
arrivalCar = [81,65,65,62,60,59,57,54,52,49,47,43,42,41,41,40,39,35,35,35,33,32,32,27]; 
departureCar = [83,68,68,65,62,60,66,59,58,52,52,49,46,44,43,47,40,40,48,37,36,48,33,34]; 
